p wcnf 106 53 54 
1 53 45 0 
1 -84 71 0 
1 -101 49 0 
1 -75 82 0 
1 19 80 0 
1 86 99 0 
1 62 -29 0 
1 -88 17 0 
1 95 16 0 
1 -93 20 0 
1 34 58 0 
1 42 18 0 
1 102 28 0 
1 59 32 0 
1 106 -65 0 
1 39 74 0 
1 -8 40 0 
1 -44 94 0 
1 27 -15 0 
1 -13 -22 0 
1 -35 60 0 
1 55 -106 0 
1 19 -35 0 
1 95 -17 0 
1 -73 -50 0 
1 25 -53 0 
1 -24 -79 0 
1 61 18 0 
1 -30 15 0 
1 -58 57 0 
1 53 65 0 
1 65 -77 0 
1 -75 45 0 
1 104 49 0 
1 92 -73 0 
1 66 18 0 
1 -35 7 0 
1 -50 34 0 
1 -9 -57 0 
1 30 40 0 
1 88 4 0 
1 99 38 0 
1 -83 -63 0 
1 -14 18 0 
1 35 88 0 
1 -24 -103 0 
1 -52 -79 0 
1 97 47 0 
1 -6 -54 0 
1 55 -43 0 
1 -93 23 0 
1 -29 -55 0 
1 -55 -44 0 
